RAW/XT/fspd-mid/X-n139-k10.vrp_seed-4.out
13052	4.321	176.422
