RAW/XT/fspd-mid/X-n139-k10.vrp_seed-4.sol
Route #1: 98
Route #2: 3 7 30 84 51 39 57 8 15 60 59 42 67 100 71 91
Route #3: 81 33 135 14 11 101 128 119 47 17 37 40 134 102
Route #4: 124 4 23 9 26 108 69 94 22 112 137 114 32 16
Route #5: 88 70 62 38 131 34 115 27 123 50 31 97 13 74 10 109
Route #6: 79 121 73 120 133 64 127 130 93 132 107 92 41 80 78 35 58 110 45 20
Route #7: 89 104 86 136 116 68 83 1 18 21 103 28 63 56
Route #8: 95 126 52 99 2 49 53 129 36 125 25 24 85 118
Route #9: 76 122 138 55 46 43 77 106 82 105 111 75 54
Route #10: 29 44 65 48 66 19 61 6 5 96 113 90 12 72 117 87
Cost 13052.000000